id: 1012
name: app1-2
group: miplib2010
method: 2

Gurobi 7.0.2 (linux64, Matlab) logging started Mon Mar 26 10:11:43 2018


Gurobi 7.0.2 (linux64) logging started Mon Mar 26 10:11:43 2018

Optimize a model with 53467 rows, 26871 columns and 199175 nonzeros
Coefficient statistics:
  Matrix range     [1e-05, 1e+00]
  Objective range  [1e+00, 1e+00]
  Bounds range     [1e+00, 1e+00]
  RHS range        [1e-05, 1e+00]
Presolve removed 9773 rows and 9467 columns
Presolve time: 1.01s
Presolved: 43694 rows, 17404 columns, 251093 nonzeros

Ordering time: 0.01s

Barrier statistics:
 Dense cols : 265
 AA' NZ     : 2.546e+05
 Factor NZ  : 4.027e+05 (roughly 30 MBytes of memory)
 Factor Ops : 4.071e+06 (less than 1 second per iteration)
 Threads    : 1

                  Objective                Residual
Iter       Primal          Dual         Primal    Dual     Compl     Time
   0  -5.19087120e+02 -9.59178516e+03  9.61e+00 1.90e-02  1.70e+00     1s
   1  -4.73406601e+02 -1.16595713e+04  8.42e+00 4.56e-01  1.37e+00     1s
   2  -1.80233195e+02 -1.14252897e+04  2.22e+00 1.34e-08  3.60e-01     1s
   3  -2.24405904e+02 -4.53662355e+03  8.29e-01 1.88e-08  1.15e-01     1s
   4  -2.42323864e+02 -1.20119265e+03  3.26e-02 5.70e-08  1.46e-02     1s
   5  -2.41344508e+02 -4.88194281e+02  6.77e-03 5.24e-08  3.57e-03     1s
   6  -2.46143997e+02 -3.41723682e+02  1.56e-06 8.17e-08  1.36e-03     1s
   7  -2.54040115e+02 -2.97849891e+02  1.63e-07 3.72e-08  6.24e-04     1s
   8  -2.60261628e+02 -2.68914811e+02  2.66e-08 9.33e-10  1.23e-04     1s
   9  -2.62002249e+02 -2.67575439e+02  1.82e-08 5.00e-10  7.93e-05     1s
  10  -2.63778859e+02 -2.66494610e+02  7.85e-09 2.08e-10  3.87e-05     1s
  11  -2.64209632e+02 -2.66231349e+02  4.59e-09 1.65e-10  2.88e-05     1s
  12  -2.64293908e+02 -2.65576993e+02  4.01e-09 6.16e-10  1.83e-05     1s
  13  -2.64317215e+02 -2.65332633e+02  3.65e-09 4.48e-10  1.45e-05     1s
  14  -2.64479015e+02 -2.65099385e+02  2.09e-09 2.65e-10  8.83e-06     2s
  15  -2.64529519e+02 -2.64974192e+02  1.19e-09 1.88e-10  6.33e-06     2s
  16  -2.64546934e+02 -2.64899860e+02  9.47e-10 1.47e-10  5.02e-06     2s
  17  -2.64568998e+02 -2.64704115e+02  5.93e-10 2.54e-09  1.92e-06     2s
  18  -2.64599683e+02 -2.64633812e+02  2.14e-11 6.93e-10  4.86e-07     2s
  19  -2.64601411e+02 -2.64608482e+02  5.01e-11 2.96e-10  1.01e-07     2s
  20  -2.64601622e+02 -2.64604385e+02  4.09e-11 4.16e-10  3.93e-08     2s
  21  -2.64601645e+02 -2.64602447e+02  6.22e-12 9.80e-11  1.14e-08     2s
  22  -2.64601650e+02 -2.64601660e+02  2.84e-13 7.04e-11  1.30e-10     2s
  23  -2.64601650e+02 -2.64601660e+02  6.34e-09 6.88e-11  1.30e-10     2s
  24  -2.64601650e+02 -2.64601660e+02  6.33e-09 7.11e-11  1.30e-10     2s
  25  -2.64601650e+02 -2.64601660e+02  6.33e-09 6.97e-11  1.29e-10     2s

Barrier solved model in 25 iterations and 1.88 seconds
Optimal objective -2.64601650e+02

Crossover log...

       0 DPushes remaining with DInf 5.1347815e-15                 2s

   12736 PPushes remaining with PInf 0.0000000e+00                 2s
       0 PPushes remaining with PInf 0.0000000e+00                 2s

  Push phase complete: Pinf 0.0000000e+00, Dinf 4.8744468e-14      2s

Iteration    Objective       Primal Inf.    Dual Inf.      Time
   13456   -2.6460165e+02   0.000000e+00   0.000000e+00      2s
   13456   -2.6460165e+02   0.000000e+00   0.000000e+00      2s

Solved in 13456 iterations and 2.05 seconds
Optimal objective -2.646016506e+02
status: OPTIMAL
